0.21 2.24
1.21 2.1
2.42 2.99
3.66 2.83
4.59 2.06
0.89 4.21
1.95 4.01
2.24 4.72
3.35 4.72
4 4.88
0.73 6.76
1.69 6.9
2.64 6.96
3.97 6.6
4.72 6.36
0.76 8.56
1.65 8.32
2.82 8.84
3.72 8.82
4.91 8.82
0.5 10.31
1.18 10.33
2.52 10.67
3.5 10.21
4.93 10.44
